H                                       
   15.0000000000000     
     1.0000000000000000    0.0000000000000000    0.0000000000000000
     0.0000000000000000    1.0000000000000000    0.0000000000000000
     0.0000000000000000    0.0000000000000000    1.0000000000000000
   H 
     2
Direct
  0.4754674697315218  0.5000000000000000  0.5000000000000000
  0.5245325302684782  0.5000000000000000  0.5000000000000000
